Optimal - objective value 1565.00000000
      2 x_2                     1                      18
      9 x_9                     1                   14.25
     13 x_13                    1                      12
     17 x_17                    1                       0
     19 x_19                    1                       0
     30 x_30                    1                       0
     33 x_33                    1                      -6
     34 x_34                    1                      27
     42 x_42                    1                     -15
     47 x_47                    1                      14
     52 x_52                    1                       0
     55 x_55                    1                      12
     60 x_60                    1                       0
     66 x_66                    1                       0
     70 x_70                    1                      26
     75 x_75                    1                      30
     78 x_78                    1                      -9
     80 x_80                    1                    10.5
     83 x_83                    1                       0
     88 x_88                    1                   22.25
     90 x_90                    1                     -21
     94 x_94                    1                       0
     97 x_97                    1                       0
    100 x_100                   1                       0
    104 x_104                   1                       3
    109 x_109                   1                       0
    114 x_114                   1                      31
    121 x_121                   1                     -17
    127 x_127                   1                       6
    129 x_129                   1                       8
    135 x_135                   1                       0
    140 x_140                   1                       0
    143 x_143                   1                       0
    147 x_147                   1                       0
    152 x_152                   1                      11
    153 x_153                   1                    12.5
    156 x_156                   1                       9
    165 x_165                   1                  -12.75
    166 x_166                   1                       0
    170 x_170                   1                      18
    175 x_175                   1                      17
    179 x_179                   1                      28
    183 x_183                   1                       0
    187 x_187                   1                      10
    191 x_191                   1                     -10
    195 x_195                   1                       0
    200 x_200                   1                      18
    204 x_204                   1                       6
    211 x_211                   1                      25
    212 x_212                   1                      17
    219 x_219                   1                       4
    224 x_224                   1                       0
    231 x_231                   1                     0.5
    232 x_232                   1                      29
    237 x_237                   1                       1
    243 x_243                   1                       0
    247 x_247                   1                       0
    251 x_251                   1                       0
    256 x_256                   1                       0
    261 x_261                   1                      10
    266 x_266                   1                      10
    268 x_268                   1                       7
    271 x_271                   1                       4
    277 x_277                   1                      23
    281 x_281                   1                    -5.5
    285 x_285                   1                       0
    289 x_289                   1                     -15
    295 x_295                   1                      18
    298 x_298                   1                       0
    304 x_304                   1                       6
    310 x_310                   1                      12
    312 x_312                   1                      -6
    317 x_317                   1                      18
    321 x_321                   1                      21
    323 x_323                   1                       0
    329 x_329                   1                      21
    334 x_334                   1                       0
    339 x_339                   1                      -2
    340 x_340                   1                       0
    348 x_348                   1                       8
Optimal - objective value 1565.00000000
      2 x_2                     1                      18
      9 x_9                     1                   14.25
     13 x_13                    1                      12
     17 x_17                    1                       0
     19 x_19                    1                       0
     30 x_30                    1                       0
     33 x_33                    1                      -6
     34 x_34                    1                      27
     42 x_42                    1                     -15
     47 x_47                    1                      14
     52 x_52                    1                       0
     55 x_55                    1                      12
     60 x_60                    1                       0
     66 x_66                    1                       0
     70 x_70                    1                      26
     75 x_75                    1                      30
     78 x_78                    1                      -9
     80 x_80                    1                    10.5
     83 x_83                    1                       0
     88 x_88                    1                   22.25
     90 x_90                    1                     -21
     94 x_94                    1                       0
     97 x_97                    1                       0
    100 x_100                   1                       0
    104 x_104                   1                       3
    109 x_109                   1                       0
    114 x_114                   1                      31
    121 x_121                   1                     -17
    127 x_127                   1                       6
    129 x_129                   1                       8
    135 x_135                   1                       0
    140 x_140                   1                       0
    143 x_143                   1                       0
    147 x_147                   1                       0
    152 x_152                   1                      11
    153 x_153                   1                    12.5
    156 x_156                   1                       9
    165 x_165                   1                  -12.75
    166 x_166                   1                       0
    170 x_170                   1                      18
    175 x_175                   1                      17
    179 x_179                   1                      28
    183 x_183                   1                       0
    187 x_187                   1                      10
    191 x_191                   1                     -10
    195 x_195                   1                       0
    200 x_200                   1                      18
    204 x_204                   1                       6
    211 x_211                   1                      25
    212 x_212                   1                      17
    219 x_219                   1                       4
    224 x_224                   1                       0
    231 x_231                   1                     0.5
    232 x_232                   1                      29
    237 x_237                   1                       1
    243 x_243                   1                       0
    247 x_247                   1                       0
    251 x_251                   1                       0
    256 x_256                   1                       0
    261 x_261                   1                      10
    266 x_266                   1                      10
    268 x_268                   1                       7
    271 x_271                   1                       4
    277 x_277                   1                      23
    281 x_281                   1                    -5.5
    285 x_285                   1                       0
    289 x_289                   1                     -15
    295 x_295                   1                      18
    298 x_298                   1                       0
    304 x_304                   1                       6
    310 x_310                   1                      12
    312 x_312                   1                      -6
    317 x_317                   1                      18
    321 x_321                   1                      21
    323 x_323                   1                       0
    329 x_329                   1                      21
    334 x_334                   1                       0
    339 x_339                   1                      -2
    340 x_340                   1                       0
    348 x_348                   1                       8
